&control
	calculation = 'relax'
	restart_mode = 'from_scratch'
	prefix = 'Si8'
	tstress = .true.
	tprnfor = .true.
	pseudo_dir = './'
/

&system
	ibrav = 0,
	nat = 7, ntyp = 1,
	ecutwfc=20
/

&electrons
	mixing_beta = 0.7
	conv_thr = 1.0d-8
/

&ions
	ion_dynamics = 'bfgs'
/

ATOMIC_SPECIES
Si 28.086 Si.pbe-rrkj.UPF
ATOMIC_POSITIONS (angstrom)
Si    2.7339929710    2.7339929710    0.0000000000
Si    2.7339929710    0.0000000000    2.7339929710
Si    0.0000000000    2.7339929710    2.7339929710
Si    4.1009894560    4.1009894560    1.3669964850
Si    1.3669964850    1.3669964850    1.3669964850
Si    4.1009894560    1.3669964850    4.1009894560
Si    1.3669964850    4.1009894560    4.1009894560
CELL_PARAMETERS (angstrom)
    5.4679859410    0.0000000000    0.0000000000
    0.0000000000    5.4679859410    0.0000000000
    0.0000000000    0.0000000000    5.4679859410
K_POINTS (automatic)
4 4 4 1 1 1
